p cnf 444 757
282 140 283 0
282 -140 -283 0
-282 140 -283 0
-282 -140 283 0
283 141 10 0
-283 -141 0
-283 -10 0
284 26 -28 0
284 -26 28 0
-284 26 28 0
-284 -26 -28 0
285 205 286 0
285 -205 -286 0
-285 205 -286 0
-285 -205 286 0
286 66 206 0
-286 -66 0
-286 -206 0
287 127 288 0
287 -127 -288 0
-287 127 -288 0
-287 -127 288 0
288 4 128 0
-288 -4 0
-288 -128 0
289 194 290 0
289 -194 -290 0
-289 194 -290 0
-289 -194 290 0
290 51 195 0
-290 -51 0
-290 -195 0
291 64 292 0
291 -64 -292 0
-291 64 -292 0
-291 -64 292 0
292 65 204 0
-292 -65 0
-292 -204 0
293 2 294 0
293 -2 -294 0
-293 2 -294 0
-293 -2 294 0
294 3 126 0
-294 -3 0
-294 -126 0
295 160 296 0
295 -160 -296 0
-295 160 -296 0
-295 -160 296 0
296 161 25 0
-296 -161 0
-296 -25 0
297 73 298 0
297 -73 -298 0
-297 73 -298 0
-297 -73 298 0
298 74 220 0
-298 -74 0
-298 -220 0
299 94 300 0
299 -94 -300 0
-299 94 -300 0
-299 -94 300 0
300 95 256 0
-300 -95 0
-300 -256 0
301 7 302 0
301 -7 -302 0
-301 7 -302 0
-301 -7 302 0
302 131 8 0
-302 -131 0
-302 -8 0
303 42 -43 0
303 -42 43 0
-303 42 43 0
-303 -42 -43 0
304 53 -54 0
304 -53 54 0
-304 53 54 0
-304 -53 -54 0
305 97 -98 0
305 -97 98 0
-305 97 98 0
-305 -97 -98 0
306 18 307 0
306 -18 -307 0
-306 18 -307 0
-306 -18 307 0
307 152 19 0
-307 -152 0
-307 -19 0
308 277 -278 0
308 -277 278 0
-308 277 278 0
-308 -277 -278 0
309 77 310 0
309 -77 -310 0
-309 77 -310 0
-309 -77 310 0
310 223 78 0
-310 -223 0
-310 -78 0
311 208 312 0
311 -208 -312 0
-311 208 -312 0
-311 -208 312 0
312 209 69 0
-312 -209 0
-312 -69 0
313 224 314 0
313 -224 -314 0
-313 224 -314 0
-313 -224 314 0
314 225 79 0
-314 -225 0
-314 -79 0
315 135 -136 0
315 -135 136 0
-315 135 136 0
-315 -135 -136 0
316 145 -146 0
316 -145 146 0
-316 145 146 0
-316 -145 -146 0
317 156 -157 0
317 -156 157 0
-317 156 157 0
-317 -156 -157 0
318 47 -50 0
318 -47 50 0
-318 47 50 0
-318 -47 -50 0
319 132 320 0
319 -132 -320 0
-319 132 -320 0
-319 -132 320 0
320 133 9 0
-320 -133 0
-320 -9 0
321 216 -217 0
321 -216 217 0
-321 216 217 0
-321 -216 -217 0
322 241 -242 0
322 -241 242 0
-322 241 242 0
-322 -241 -242 0
323 165 -166 0
323 -165 166 0
-323 165 166 0
-323 -165 -166 0
324 116 325 0
324 -116 -325 0
-324 116 -325 0
-324 -116 325 0
325 280 117 0
-325 -280 0
-325 -117 0
326 112 -115 0
326 -112 115 0
-326 112 115 0
-326 -112 -115 0
327 43 328 0
327 -43 -328 0
-327 43 -328 0
-327 -43 328 0
328 44 184 0
-328 -44 0
-328 -184 0
329 14 -15 0
329 -14 15 0
-329 14 15 0
-329 -14 -15 0
330 23 -24 0
330 -23 24 0
-330 23 24 0
-330 -23 -24 0
331 80 -81 0
331 -80 81 0
-331 80 81 0
-331 -80 -81 0
332 107 333 0
332 -107 -333 0
-332 107 -333 0
-332 -107 333 0
333 108 276 0
-333 -108 0
-333 -276 0
334 111 -113 0
334 -111 113 0
-334 111 113 0
-334 -111 -113 0
335 185 336 0
335 -185 -336 0
-335 185 -336 0
-335 -185 336 0
336 45 186 0
-336 -45 0
-336 -186 0
337 252 338 0
337 -252 -338 0
-337 252 -338 0
-337 -252 338 0
338 91 253 0
-338 -91 0
-338 -253 0
339 231 340 0
339 -231 -340 0
-339 231 -340 0
-339 -231 340 0
340 238 85 0
-340 -238 0
-340 -85 0
341 247 -248 0
341 -247 248 0
-341 247 248 0
-341 -247 -248 0
342 257 -258 0
342 -257 258 0
-342 257 258 0
-342 -257 -258 0
343 267 -268 0
343 -267 268 0
-343 267 268 0
-343 -267 -268 0
344 189 -190 0
344 -189 190 0
-344 189 190 0
-344 -189 -190 0
345 176 -182 0
345 -176 182 0
-345 176 182 0
-345 -176 -182 0
346 254 -261 0
346 -254 261 0
-346 254 261 0
-346 -254 -261 0
347 170 -171 0
347 -170 171 0
-347 170 171 0
-347 -170 -171 0
348 178 -179 0
348 -178 179 0
-348 178 179 0
-348 -178 -179 0
349 199 -200 0
349 -199 200 0
-349 199 200 0
-349 -199 -200 0
350 104 351 0
350 -104 -351 0
-350 104 -351 0
-350 -104 351 0
351 105 266 0
-351 -105 0
-351 -266 0
352 37 353 0
352 -37 -353 0
-352 37 -353 0
-352 -37 353 0
353 38 177 0
-353 -38 0
-353 -177 0
354 11 355 0
354 -11 -355 0
-354 11 -355 0
-354 -11 355 0
355 142 12 0
-355 -142 0
-355 -12 0
356 51 -52 0
356 -51 52 0
-356 51 52 0
-356 -51 -52 0
357 265 -272 0
357 -265 272 0
-357 265 272 0
-357 -265 -272 0
358 82 359 0
358 -82 -359 0
-358 82 -359 0
-358 -82 359 0
359 235 83 0
-359 -235 0
-359 -83 0
360 70 361 0
360 -70 -361 0
-360 70 -361 0
-360 -70 361 0
361 213 71 0
-361 -213 0
-361 -71 0
362 118 363 0
362 -118 -363 0
-362 118 -363 0
-362 -118 363 0
363 119 1 0
-363 -119 0
-363 -1 0
364 214 365 0
364 -214 -365 0
-364 214 -365 0
-364 -214 365 0
365 215 72 0
-365 -215 0
-365 -72 0
366 236 367 0
366 -236 -367 0
-366 236 -367 0
-366 -236 367 0
367 237 84 0
-367 -237 0
-367 -84 0
368 123 -124 0
368 -123 124 0
-368 123 124 0
-368 -123 -124 0
369 137 -138 0
369 -137 138 0
-369 137 138 0
-369 -137 -138 0
370 147 -148 0
370 -147 148 0
-370 147 148 0
-370 -147 -148 0
371 158 -159 0
371 -158 159 0
-371 158 159 0
-371 -158 -159 0
372 210 -211 0
372 -210 211 0
-372 210 211 0
-372 -210 -211 0
373 218 -219 0
373 -218 219 0
-373 218 219 0
-373 -218 -219 0
374 143 375 0
374 -143 -375 0
-374 143 -375 0
-374 -143 375 0
375 144 13 0
-375 -144 0
-375 -13 0
376 228 -229 0
376 -228 229 0
-376 228 229 0
-376 -228 -229 0
377 243 -244 0
377 -243 244 0
-377 243 244 0
-377 -243 -244 0
378 96 379 0
378 -96 -379 0
-378 96 -379 0
-378 -96 379 0
379 97 262 0
-379 -97 0
-379 -262 0
380 113 381 0
380 -113 -381 0
-380 113 -381 0
-380 -113 381 0
381 279 114 0
-381 -279 0
-381 -114 0
382 54 383 0
382 -54 -383 0
-382 54 -383 0
-382 -54 383 0
383 55 196 0
-383 -55 0
-383 -196 0
384 21 -22 0
384 -21 22 0
-384 21 22 0
-384 -21 -22 0
385 102 -106 0
385 -102 106 0
-385 102 106 0
-385 -102 -106 0
386 197 387 0
386 -197 -387 0
-386 197 -387 0
-386 -197 387 0
387 57 198 0
-387 -57 0
-387 -198 0
388 174 389 0
388 -174 -389 0
-388 174 -389 0
-388 -174 389 0
389 33 175 0
-389 -33 0
-389 -175 0
390 263 391 0
390 -263 -391 0
-390 263 -391 0
-390 -263 391 0
391 99 264 0
-391 -99 0
-391 -264 0
392 67 393 0
392 -67 -393 0
-392 67 -393 0
-392 -67 393 0
393 68 207 0
-393 -68 0
-393 -207 0
394 149 395 0
394 -149 -395 0
-394 149 -395 0
-394 -149 395 0
395 153 20 0
-395 -153 0
-395 -20 0
396 245 -246 0
396 -245 246 0
-396 245 246 0
-396 -245 -246 0
397 249 -250 0
397 -249 250 0
-397 249 250 0
-397 -249 -250 0
398 259 -260 0
398 -259 260 0
-398 259 260 0
-398 -259 -260 0
399 269 -270 0
399 -269 270 0
-399 269 270 0
-399 -269 -270 0
400 187 -193 0
400 -187 193 0
-400 187 193 0
-400 -187 -193 0
401 167 -168 0
401 -167 168 0
-401 167 168 0
-401 -167 -168 0
402 172 -173 0
402 -172 173 0
-402 172 173 0
-402 -172 -173 0
403 180 -181 0
403 -180 181 0
-403 180 181 0
-403 -180 -181 0
404 191 -192 0
404 -191 192 0
-404 191 192 0
-404 -191 -192 0
405 48 406 0
405 -48 -406 0
-405 48 -406 0
-405 -48 406 0
406 49 188 0
-406 -49 0
-406 -188 0
407 5 408 0
407 -5 -408 0
-407 5 -408 0
-407 -5 408 0
408 129 6 0
-408 -129 0
-408 -6 0
409 16 410 0
409 -16 -410 0
-409 16 -410 0
-409 -16 410 0
410 150 17 0
-410 -150 0
-410 -17 0
411 29 -30 0
411 -29 30 0
-411 29 30 0
-411 -29 -30 0
412 34 -35 0
412 -34 35 0
-412 34 35 0
-412 -34 -35 0
413 45 -46 0
413 -45 46 0
-413 45 46 0
-413 -45 -46 0
414 57 -58 0
414 -57 58 0
-414 57 58 0
-414 -57 -58 0
415 87 -88 0
415 -87 88 0
-415 87 88 0
-415 -87 -88 0
416 92 -93 0
416 -92 93 0
-416 92 93 0
-416 -92 -93 0
417 100 -101 0
417 -100 101 0
-417 100 101 0
-417 -100 -101 0
418 75 419 0
418 -75 -419 0
-418 75 -419 0
-418 -75 419 0
419 221 76 0
-419 -221 0
-419 -76 0
420 255 421 0
420 -255 -421 0
-420 255 -421 0
-420 -255 421 0
421 95 256 0
-421 -95 0
-421 -256 0
422 271 -281 0
422 -271 281 0
-422 271 281 0
-422 -271 -281 0
423 27 424 0
423 -27 -424 0
-423 27 -424 0
-423 -27 424 0
424 201 61 0
-424 -201 0
-424 -61 0
425 130 426 0
425 -130 -426 0
-425 130 -426 0
-425 -130 426 0
426 131 8 0
-426 -131 0
-426 -8 0
427 62 428 0
427 -62 -428 0
-427 62 -428 0
-427 -62 428 0
428 63 202 0
-428 -63 0
-428 -202 0
429 222 430 0
429 -222 -430 0
-429 222 -430 0
-429 -222 430 0
430 223 78 0
-430 -223 0
-430 -78 0
431 154 -155 0
431 -154 155 0
-431 154 155 0
-431 -154 -155 0
432 31 -32 0
432 -31 32 0
-432 31 32 0
-432 -31 -32 0
433 89 -90 0
433 -89 90 0
-433 89 90 0
-433 -89 -90 0
434 109 -110 0
434 -109 110 0
-434 109 110 0
-434 -109 -110 0
435 151 436 0
435 -151 -436 0
-435 151 -436 0
-435 -151 436 0
436 152 19 0
-436 -152 0
-436 -19 0
437 239 -240 0
437 -239 240 0
-437 239 240 0
-437 -239 -240 0
438 163 -164 0
438 -163 164 0
-438 163 164 0
-438 -163 -164 0
439 61 -86 0
439 -61 86 0
-439 61 86 0
-439 -61 -86 0
440 41 441 0
440 -41 -441 0
-440 41 -441 0
-440 -41 441 0
441 42 183 0
-441 -42 0
-441 -183 0
442 6 -7 0
442 -6 7 0
-442 6 7 0
-442 -6 -7 0
443 10 -11 0
443 -10 11 0
-443 10 11 0
-443 -10 -11 0
444 162 162 0
-444 -162 0
-444 -162 0
282 0
36 0
284 0
285 0
287 0
105 0
289 0
37 0
119 0
103 0
120 0
291 0
293 0
39 0
295 0
297 0
212 0
299 0
122 0
40 0
203 0
121 0
301 0
303 0
304 0
305 0
306 0
308 0
309 0
217 0
41 0
311 0
169 0
313 0
315 0
316 0
317 0
318 0
319 0
321 0
322 0
323 0
127 0
324 0
326 0
125 0
327 0
329 0
330 0
331 0
332 0
334 0
335 0
337 0
49 0
224 0
339 0
341 0
342 0
343 0
344 0
345 0
346 0
347 0
348 0
349 0
350 0
134 0
352 0
354 0
356 0
357 0
358 0
360 0
227 0
362 0
229 0
52 0
364 0
139 0
230 0
58 0
366 0
368 0
369 0
56 0
370 0
371 0
251 0
372 0
373 0
374 0
55 0
226 0
376 0
377 0
378 0
380 0
382 0
384 0
385 0
386 0
59 0
388 0
390 0
233 0
60 0
275 0
234 0
142 0
392 0
394 0
396 0
397 0
398 0
399 0
273 0
232 0
400 0
274 0
401 0
402 0
403 0
404 0
140 0
405 0
407 0
409 0
411 0
412 0
413 0
414 0
415 0
416 0
417 0
418 0
420 0
422 0
423 0
425 0
427 0
244 0
429 0
431 0
432 0
433 0
434 0
435 0
437 0
438 0
439 0
440 0
442 0
443 0
444 0
